\ Equation counts
\     Total        E        G        L        N        X        C        B
\	202	202	0	0
\
\ Variable counts
\                  x        b        i      s1s      s2s       sc       si
\     Total     cont   binary  integer     sos1     sos2    scont     sint
\	40	40

\ Nonzero counts
\     Total    const       NL      DLL
\
\
Minimize
 obj: [ - 21.5 x_1 * x_1 + 18.0 x_1 * x_2 + 10.5 x_1 * x_3 - 5.5 x_1 * x_4 + 21.5 x_1 * x_8 - 10.5 x_1 * x_10 + 17.0 x_1 * x_11 - 1.5 x_1 * x_14 + 24.0 x_1 * x_16 - 21.5 x_1 * x_17 - 5.0 x_1 * x_18 - 8.0 x_1 * x_21 + 5.0 x_1 * x_22 + 17.5 x_1 * x_25 + 10.0 x_1 * x_27 - 17.5 x_1 * x_29 + 7.5 x_1 * x_30 + 13.0 x_1 * x_31 + 23.5 x_1 * x_32 + 11.5 x_1 * x_33 + 8.5 x_1 * x_40 + 18.0 x_2 * x_1 - 5.5 x_2 * x_3 - 18.0 x_2 * x_4 - 13.0 x_2 * x_5 + 10.5 x_2 * x_6 - 20.5 x_2 * x_8 - 22.0 x_2 * x_9 + 4.5 x_2 * x_11 - 12.5 x_2 * x_12 + 13.0 x_2 * x_19 - 1.5 x_2 * x_20 - 14.5 x_2 * x_21 + 4.0 x_2 * x_23 + 21.0 x_2 * x_24 - 1.0 x_2 * x_26 - 7.5 x_2 * x_31 - 21.0 x_2 * x_32 + 16.0 x_2 * x_36 - 24.0 x_2 * x_38 + 12.0 x_2 * x_39 + 22.5 x_2 * x_40 + 10.5 x_3 * x_1 - 5.5 x_3 * x_2 - 20.0 x_3 * x_3 + 21.0 x_3 * x_5 - 22.5 x_3 * x_6 + 19.5 x_3 * x_7 - 10.0 x_3 * x_8 + 18.5 x_3 * x_11 + 4.0 x_3 * x_14 + 0.5 x_3 * x_15 - 7.0 x_3 * x_16 + 14.0 x_3 * x_18 + 20.0 x_3 * x_19 + 20.5 x_3 * x_21 - 16.5 x_3 * x_22 + 21.0 x_3 * x_23 + 22.5 x_3 * x_29 + 17.0 x_3 * x_31 + 17.5 x_3 * x_34 + 14.5 x_3 * x_37 + 14.5 x_3 * x_38 + 20.0 x_3 * x_40 - 5.5 x_4 * x_1 - 18.0 x_4 * x_2 + 4.5 x_4 * x_4 + 6.5 x_4 * x_8 - 13.5 x_4 * x_9 + 20.0 x_4 * x_10 - 21.5 x_4 * x_16 + 23.0 x_4 * x_17 + 17.0 x_4 * x_20 - 22.5 x_4 * x_21 - 5.0 x_4 * x_22 + 14.0 x_4 * x_25 - 21.5 x_4 * x_28 + 4.0 x_4 * x_29 + 15.5 x_4 * x_30 + 9.0 x_4 * x_33 - 7.5 x_4 * x_34 - 4.0 x_4 * x_35 + 1.0 x_4 * x_36 - 6.0 x_4 * x_38 + 17.0 x_4 * x_39 + 1.0 x_4 * x_40 - 13.0 x_5 * x_2 + 21.0 x_5 * x_3 - 6.5 x_5 * x_6 + 2.5 x_5 * x_10 - 1.5 x_5 * x_11 - 11.0 x_5 * x_12 - 10.5 x_5 * x_15 + 0.5 x_5 * x_16 + 7.5 x_5 * x_18 + 24.5 x_5 * x_21 + 24.5 x_5 * x_22 + 8.5 x_5 * x_23 + 17.5 x_5 * x_25 + 24.5 x_5 * x_26 + 13.0 x_5 * x_27 - 9.0 x_5 * x_29 + 24.5 x_5 * x_33 - 20.5 x_5 * x_34 - 19.0 x_5 * x_35 + 23.0 x_5 * x_38 + 3.0 x_5 * x_40 + 10.5 x_6 * x_2 - 22.5 x_6 * x_3 - 6.5 x_6 * x_5 + 0.5 x_6 * x_6 + 3.0 x_6 * x_8 - 17.0 x_6 * x_9 + 14.5 x_6 * x_10 - 6.0 x_6 * x_15 - 10.0 x_6 * x_18 + 7.5 x_6 * x_19 - 5.5 x_6 * x_23 + 2.0 x_6 * x_24 - 22.0 x_6 * x_30 + 8.5 x_6 * x_31 - 22.5 x_6 * x_32 + 3.0 x_6 * x_33 + 23.5 x_6 * x_36 - 6.0 x_6 * x_37 + 19.5 x_7 * x_3 + 23.0 x_7 * x_10 + 9.0 x_7 * x_14 - 5.5 x_7 * x_15 - 2.0 x_7 * x_17 - 7.5 x_7 * x_21 + 5.0 x_7 * x_25 + 8.0 x_7 * x_26 + 23.5 x_7 * x_27 + 10.5 x_7 * x_28 + 20.5 x_7 * x_30 - 8.0 x_7 * x_31 + 0.5 x_7 * x_35 - 8.5 x_7 * x_38 - 7.5 x_7 * x_39 - 23.0 x_7 * x_40 + 21.5 x_8 * x_1 - 20.5 x_8 * x_2 - 10.0 x_8 * x_3 + 6.5 x_8 * x_4 + 3.0 x_8 * x_6 - 19.0 x_8 * x_9 - 19.0 x_8 * x_19 - 11.0 x_8 * x_20 + 17.5 x_8 * x_21 + 22.5 x_8 * x_24 + 0.5 x_8 * x_25 + 18.5 x_8 * x_27 - 7.0 x_8 * x_28 + 21.5 x_8 * x_29 - 9.5 x_8 * x_33 - 10.0 x_8 * x_35 + 1.0 x_8 * x_37 - 22.0 x_9 * x_2 - 13.5 x_9 * x_4 - 17.0 x_9 * x_6 - 19.0 x_9 * x_8 + 23.5 x_9 * x_10 - 13.5 x_9 * x_12 + 21.5 x_9 * x_15 + 16.0 x_9 * x_16 + 13.0 x_9 * x_17 - 5.5 x_9 * x_19 + 24.0 x_9 * x_22 + 17.0 x_9 * x_24 - 13.5 x_9 * x_25 + 5.5 x_9 * x_26 - 21.5 x_9 * x_28 - 20.5 x_9 * x_30 + 6.5 x_9 * x_31 - 6.5 x_9 * x_34 + 3.0 x_9 * x_36 - 10.5 x_10 * x_1 + 20.0 x_10 * x_4 + 2.5 x_10 * x_5 + 14.5 x_10 * x_6 + 23.0 x_10 * x_7 + 23.5 x_10 * x_9 + 11.5 x_10 * x_10 + 8.0 x_10 * x_11 + 1.5 x_10 * x_13 + 24.0 x_10 * x_15 + 10.5 x_10 * x_16 - 2.5 x_10 * x_18 - 4.5 x_10 * x_19 + 5.0 x_10 * x_22 + 10.5 x_10 * x_28 - 11.5 x_10 * x_30 + 4.5 x_10 * x_31 - 19.5 x_10 * x_34 + 18.5 x_10 * x_35 + 4.0 x_10 * x_38 + 1.5 x_10 * x_39 + 9.0 x_10 * x_40 + 17.0 x_11 * x_1 + 4.5 x_11 * x_2 + 18.5 x_11 * x_3 - 1.5 x_11 * x_5 + 8.0 x_11 * x_10 + 22.5 x_11 * x_12 - 5.0 x_11 * x_13 + 14.5 x_11 * x_15 - 17.0 x_11 * x_18 + 15.5 x_11 * x_19 + 18.5 x_11 * x_20 + 20.0 x_11 * x_22 - 6.0 x_11 * x_25 + 9.0 x_11 * x_28 + 22.0 x_11 * x_30 + 13.5 x_11 * x_31 - 5.5 x_11 * x_34 - 13.5 x_11 * x_36 - 12.5 x_12 * x_2 - 11.0 x_12 * x_5 - 13.5 x_12 * x_9 + 22.5 x_12 * x_11 - 8.5 x_12 * x_12 - 14.5 x_12 * x_14 + 17.5 x_12 * x_15 - 12.5 x_12 * x_17 - 4.0 x_12 * x_21 + 0.5 x_12 * x_22 + 24.5 x_12 * x_28 - 8.5 x_12 * x_31 - 0.5 x_12 * x_35 + 7.0 x_12 * x_36 - 4.5 x_12 * x_37 - 5.0 x_12 * x_39 + 1.5 x_13 * x_10 - 5.0 x_13 * x_11 - 19.5 x_13 * x_15 + 10.0 x_13 * x_16 - 1.5 x_13 * x_18 + 24.5 x_13 * x_20 - 20.0 x_13 * x_21 - 19.0 x_13 * x_24 + 13.0 x_13 * x_25 + 1.0 x_13 * x_26 + 8.0 x_13 * x_30 - 21.0 x_13 * x_32 - 3.0 x_13 * x_38 - 21.5 x_13 * x_39 + 8.0 x_13 * x_40 - 1.5 x_14 * x_1 + 4.0 x_14 * x_3 + 9.0 x_14 * x_7 - 14.5 x_14 * x_12 - 11.5 x_14 * x_16 - 1.0 x_14 * x_18 + 2.5 x_14 * x_20 - 8.0 x_14 * x_25 + 1.0 x_14 * x_27 + 3.0 x_14 * x_29 + 7.0 x_14 * x_31 - 14.5 x_14 * x_34 + 23.5 x_14 * x_35 - 20.0 x_14 * x_36 - 5.5 x_14 * x_38 - 20.0 x_14 * x_39 + 11.5 x_14 * x_40 + 0.5 x_15 * x_3 - 10.5 x_15 * x_5 - 6.0 x_15 * x_6 - 5.5 x_15 * x_7 + 21.5 x_15 * x_9 + 24.0 x_15 * x_10 + 14.5 x_15 * x_11 + 17.5 x_15 * x_12 - 19.5 x_15 * x_13 + 6.0 x_15 * x_16 - 20.0 x_15 * x_18 - 6.0 x_15 * x_20 + 8.0 x_15 * x_21 + 4.0 x_15 * x_22 + 5.0 x_15 * x_23 + 17.0 x_15 * x_26 + 18.0 x_15 * x_27 - 9.5 x_15 * x_31 - 8.0 x_15 * x_32 - 14.5 x_15 * x_34 - 7.0 x_15 * x_35 - 6.5 x_15 * x_36 + 1.0 x_15 * x_37 - 5.5 x_15 * x_38 + 5.0 x_15 * x_39 + 8.5 x_15 * x_40 + 24.0 x_16 * x_1 - 7.0 x_16 * x_3 - 21.5 x_16 * x_4 + 0.5 x_16 * x_5 + 16.0 x_16 * x_9 + 10.5 x_16 * x_10 + 10.0 x_16 * x_13 - 11.5 x_16 * x_14 + 6.0 x_16 * x_15 + 8.5 x_16 * x_16 + 4.0 x_16 * x_18 + 8.0 x_16 * x_19 - 4.0 x_16 * x_24 - 15.5 x_16 * x_26 - 19.5 x_16 * x_27 - 23.0 x_16 * x_28 + 19.0 x_16 * x_29 + 17.0 x_16 * x_37 - 10.5 x_16 * x_38 - 21.5 x_17 * x_1 + 23.0 x_17 * x_4 - 2.0 x_17 * x_7 + 13.0 x_17 * x_9 - 12.5 x_17 * x_12 - 3.0 x_17 * x_17 + 12.5 x_17 * x_20 - 3.5 x_17 * x_21 + 4.0 x_17 * x_23 + 4.0 x_17 * x_28 + 21.5 x_17 * x_30 - 4.0 x_17 * x_32 - 13.0 x_17 * x_35 - 17.0 x_17 * x_36 + 8.5 x_17 * x_37 - 3.5 x_17 * x_40 - 5.0 x_18 * x_1 + 14.0 x_18 * x_3 + 7.5 x_18 * x_5 - 10.0 x_18 * x_6 - 2.5 x_18 * x_10 - 17.0 x_18 * x_11 - 1.5 x_18 * x_13 - 1.0 x_18 * x_14 - 20.0 x_18 * x_15 + 4.0 x_18 * x_16 + 11.5 x_18 * x_20 - 15.5 x_18 * x_22 - 13.5 x_18 * x_24 + 21.0 x_18 * x_27 + 24.5 x_18 * x_29 + 8.5 x_18 * x_31 + 2.0 x_18 * x_33 + 15.5 x_18 * x_37 - 12.0 x_18 * x_38 - 12.5 x_18 * x_40 + 13.0 x_19 * x_2 + 20.0 x_19 * x_3 + 7.5 x_19 * x_6 - 19.0 x_19 * x_8 - 5.5 x_19 * x_9 - 4.5 x_19 * x_10 + 15.5 x_19 * x_11 + 8.0 x_19 * x_16 + 18.0 x_19 * x_20 + 23.5 x_19 * x_21 + 13.0 x_19 * x_22 - 12.0 x_19 * x_25 - 3.5 x_19 * x_26 - 7.0 x_19 * x_28 + 21.0 x_19 * x_32 - 11.0 x_19 * x_33 - 16.5 x_19 * x_34 + 8.0 x_19 * x_35 + 9.5 x_19 * x_36 + 22.0 x_19 * x_38 + 13.0 x_19 * x_40 - 1.5 x_20 * x_2 + 17.0 x_20 * x_4 - 11.0 x_20 * x_8 + 18.5 x_20 * x_11 + 24.5 x_20 * x_13 + 2.5 x_20 * x_14 - 6.0 x_20 * x_15 + 12.5 x_20 * x_17 + 11.5 x_20 * x_18 + 18.0 x_20 * x_19 - 7.5 x_20 * x_21 + 5.0 x_20 * x_22 + 14.5 x_20 * x_28 + 18.0 x_20 * x_29 + 16.0 x_20 * x_30 + 19.5 x_20 * x_31 + 10.0 x_20 * x_34 + 13.0 x_20 * x_37 - 10.0 x_20 * x_39 + 1.5 x_20 * x_40 - 8.0 x_21 * x_1 - 14.5 x_21 * x_2 + 20.5 x_21 * x_3 - 22.5 x_21 * x_4 + 24.5 x_21 * x_5 - 7.5 x_21 * x_7 + 17.5 x_21 * x_8 - 4.0 x_21 * x_12 - 20.0 x_21 * x_13 + 8.0 x_21 * x_15 - 3.5 x_21 * x_17 + 23.5 x_21 * x_19 - 7.5 x_21 * x_20 - 4.5 x_21 * x_22 + 11.0 x_21 * x_25 - 18.0 x_21 * x_26 + 20.5 x_21 * x_28 - 8.0 x_21 * x_32 + 20.0 x_21 * x_33 + 23.5 x_21 * x_35 - 18.5 x_21 * x_36 - 12.5 x_21 * x_38 + 11.5 x_21 * x_39 + 17.5 x_21 * x_40 + 5.0 x_22 * x_1 - 16.5 x_22 * x_3 - 5.0 x_22 * x_4 + 24.5 x_22 * x_5 + 24.0 x_22 * x_9 + 5.0 x_22 * x_10 + 20.0 x_22 * x_11 + 0.5 x_22 * x_12 + 4.0 x_22 * x_15 - 15.5 x_22 * x_18 + 13.0 x_22 * x_19 + 5.0 x_22 * x_20 - 4.5 x_22 * x_21 + 10.5 x_22 * x_24 + 17.5 x_22 * x_26 - 7.5 x_22 * x_30 + 10.5 x_22 * x_32 - 22.0 x_22 * x_33 - 9.5 x_22 * x_35 + 24.5 x_22 * x_37 - 24.0 x_22 * x_38 - 8.0 x_22 * x_39 + 12.0 x_22 * x_40 + 4.0 x_23 * x_2 + 21.0 x_23 * x_3 + 8.5 x_23 * x_5 - 5.5 x_23 * x_6 + 5.0 x_23 * x_15 + 4.0 x_23 * x_17 + 23.0 x_23 * x_23 - 14.0 x_23 * x_24 + 23.5 x_23 * x_28 + 22.0 x_23 * x_29 + 15.0 x_23 * x_30 + 23.5 x_23 * x_31 - 5.5 x_23 * x_34 + 6.5 x_23 * x_35 - 17.0 x_23 * x_36 - 6.5 x_23 * x_37 - 19.5 x_23 * x_38 - 20.0 x_23 * x_40 + 21.0 x_24 * x_2 + 2.0 x_24 * x_6 + 22.5 x_24 * x_8 + 17.0 x_24 * x_9 - 19.0 x_24 * x_13 - 4.0 x_24 * x_16 - 13.5 x_24 * x_18 + 10.5 x_24 * x_22 - 14.0 x_24 * x_23 + 11.5 x_24 * x_25 - 6.5 x_24 * x_26 - 21.5 x_24 * x_31 + 3.0 x_24 * x_32 + 10.5 x_24 * x_34 - 12.5 x_24 * x_36 + 21.5 x_24 * x_37 + 17.5 x_25 * x_1 + 14.0 x_25 * x_4 + 17.5 x_25 * x_5 + 5.0 x_25 * x_7 + 0.5 x_25 * x_8 - 13.5 x_25 * x_9 - 6.0 x_25 * x_11 + 13.0 x_25 * x_13 - 8.0 x_25 * x_14 - 12.0 x_25 * x_19 + 11.0 x_25 * x_21 + 11.5 x_25 * x_24 + 16.5 x_25 * x_25 - 19.0 x_25 * x_32 - 3.5 x_25 * x_34 - 10.0 x_25 * x_36 + 7.5 x_25 * x_37 + 16.5 x_25 * x_39 + 3.0 x_25 * x_40 - 1.0 x_26 * x_2 + 24.5 x_26 * x_5 + 8.0 x_26 * x_7 + 5.5 x_26 * x_9 + 1.0 x_26 * x_13 + 17.0 x_26 * x_15 - 15.5 x_26 * x_16 - 3.5 x_26 * x_19 - 18.0 x_26 * x_21 + 17.5 x_26 * x_22 - 6.5 x_26 * x_24 - 3.0 x_26 * x_26 + 7.0 x_26 * x_28 - 7.0 x_26 * x_30 - 5.0 x_26 * x_32 - 18.5 x_26 * x_35 - 18.0 x_26 * x_39 - 15.5 x_26 * x_40 + 10.0 x_27 * x_1 + 13.0 x_27 * x_5 + 23.5 x_27 * x_7 + 18.5 x_27 * x_8 + 1.0 x_27 * x_14 + 18.0 x_27 * x_15 - 19.5 x_27 * x_16 + 21.0 x_27 * x_18 + 14.5 x_27 * x_28 + 5.0 x_27 * x_29 + 10.0 x_27 * x_31 - 14.0 x_27 * x_32 - 3.5 x_27 * x_33 + 14.0 x_27 * x_36 + 18.0 x_27 * x_38 - 7.5 x_27 * x_39 + 13.5 x_27 * x_40 - 21.5 x_28 * x_4 + 10.5 x_28 * x_7 - 7.0 x_28 * x_8 - 21.5 x_28 * x_9 + 10.5 x_28 * x_10 + 9.0 x_28 * x_11 + 24.5 x_28 * x_12 - 23.0 x_28 * x_16 + 4.0 x_28 * x_17 - 7.0 x_28 * x_19 + 14.5 x_28 * x_20 + 20.5 x_28 * x_21 + 23.5 x_28 * x_23 + 7.0 x_28 * x_26 + 14.5 x_28 * x_27 + 1.5 x_28 * x_31 + 14.0 x_28 * x_32 + 17.5 x_28 * x_35 + 16.0 x_28 * x_36 - 17.5 x_29 * x_1 + 22.5 x_29 * x_3 + 4.0 x_29 * x_4 - 9.0 x_29 * x_5 + 21.5 x_29 * x_8 + 3.0 x_29 * x_14 + 19.0 x_29 * x_16 + 24.5 x_29 * x_18 + 18.0 x_29 * x_20 + 22.0 x_29 * x_23 + 5.0 x_29 * x_27 + 23.5 x_29 * x_31 - 13.0 x_29 * x_34 - 20.5 x_29 * x_36 - 7.0 x_29 * x_38 + 7.5 x_30 * x_1 + 15.5 x_30 * x_4 - 22.0 x_30 * x_6 + 20.5 x_30 * x_7 - 20.5 x_30 * x_9 - 11.5 x_30 * x_10 + 22.0 x_30 * x_11 + 8.0 x_30 * x_13 + 21.5 x_30 * x_17 + 16.0 x_30 * x_20 - 7.5 x_30 * x_22 + 15.0 x_30 * x_23 - 7.0 x_30 * x_26 - 9.0 x_30 * x_30 - 15.0 x_30 * x_31 + 22.5 x_30 * x_32 + 0.5 x_30 * x_33 + 4.0 x_30 * x_34 + 23.5 x_30 * x_35 - 13.5 x_30 * x_36 - 14.0 x_30 * x_37 + 19.5 x_30 * x_38 - 3.0 x_30 * x_39 + 13.0 x_31 * x_1 - 7.5 x_31 * x_2 + 17.0 x_31 * x_3 + 8.5 x_31 * x_6 - 8.0 x_31 * x_7 + 6.5 x_31 * x_9 + 4.5 x_31 * x_10 + 13.5 x_31 * x_11 - 8.5 x_31 * x_12 + 7.0 x_31 * x_14 - 9.5 x_31 * x_15 + 8.5 x_31 * x_18 + 19.5 x_31 * x_20 + 23.5 x_31 * x_23 - 21.5 x_31 * x_24 + 10.0 x_31 * x_27 + 1.5 x_31 * x_28 + 23.5 x_31 * x_29 - 15.0 x_31 * x_30 + 10.5 x_31 * x_31 + 24.5 x_31 * x_32 - 8.5 x_31 * x_33 - 12.0 x_31 * x_38 + 17.0 x_31 * x_39 + 23.5 x_32 * x_1 - 21.0 x_32 * x_2 - 22.5 x_32 * x_6 - 21.0 x_32 * x_13 - 8.0 x_32 * x_15 - 4.0 x_32 * x_17 + 21.0 x_32 * x_19 - 8.0 x_32 * x_21 + 10.5 x_32 * x_22 + 3.0 x_32 * x_24 - 19.0 x_32 * x_25 - 5.0 x_32 * x_26 - 14.0 x_32 * x_27 + 14.0 x_32 * x_28 + 22.5 x_32 * x_30 + 24.5 x_32 * x_31 + 16.0 x_32 * x_34 - 22.0 x_32 * x_36 + 15.0 x_32 * x_37 - 21.0 x_32 * x_38 + 5.5 x_32 * x_39 + 11.5 x_33 * x_1 + 9.0 x_33 * x_4 + 24.5 x_33 * x_5 + 3.0 x_33 * x_6 - 9.5 x_33 * x_8 + 2.0 x_33 * x_18 - 11.0 x_33 * x_19 + 20.0 x_33 * x_21 - 22.0 x_33 * x_22 - 3.5 x_33 * x_27 + 0.5 x_33 * x_30 - 8.5 x_33 * x_31 + 24.5 x_33 * x_33 + 6.5 x_33 * x_34 - 24.5 x_33 * x_38 + 17.5 x_34 * x_3 - 7.5 x_34 * x_4 - 20.5 x_34 * x_5 - 6.5 x_34 * x_9 - 19.5 x_34 * x_10 - 5.5 x_34 * x_11 - 14.5 x_34 * x_14 - 14.5 x_34 * x_15 - 16.5 x_34 * x_19 + 10.0 x_34 * x_20 - 5.5 x_34 * x_23 + 10.5 x_34 * x_24 - 3.5 x_34 * x_25 - 13.0 x_34 * x_29 + 4.0 x_34 * x_30 + 16.0 x_34 * x_32 + 6.5 x_34 * x_33 + 2.0 x_34 * x_34 - 19.0 x_34 * x_35 - 4.0 x_35 * x_4 - 19.0 x_35 * x_5 + 0.5 x_35 * x_7 - 10.0 x_35 * x_8 + 18.5 x_35 * x_10 - 0.5 x_35 * x_12 + 23.5 x_35 * x_14 - 7.0 x_35 * x_15 - 13.0 x_35 * x_17 + 8.0 x_35 * x_19 + 23.5 x_35 * x_21 - 9.5 x_35 * x_22 + 6.5 x_35 * x_23 - 18.5 x_35 * x_26 + 17.5 x_35 * x_28 + 23.5 x_35 * x_30 - 19.0 x_35 * x_34 + 5.0 x_35 * x_39 + 16.0 x_36 * x_2 + 1.0 x_36 * x_4 + 23.5 x_36 * x_6 + 3.0 x_36 * x_9 - 13.5 x_36 * x_11 + 7.0 x_36 * x_12 - 20.0 x_36 * x_14 - 6.5 x_36 * x_15 - 17.0 x_36 * x_17 + 9.5 x_36 * x_19 - 18.5 x_36 * x_21 - 17.0 x_36 * x_23 - 12.5 x_36 * x_24 - 10.0 x_36 * x_25 + 14.0 x_36 * x_27 + 16.0 x_36 * x_28 - 20.5 x_36 * x_29 - 13.5 x_36 * x_30 - 22.0 x_36 * x_32 - 11.5 x_36 * x_36 + 18.5 x_36 * x_39 + 14.5 x_37 * x_3 - 6.0 x_37 * x_6 + 1.0 x_37 * x_8 - 4.5 x_37 * x_12 + 1.0 x_37 * x_15 + 17.0 x_37 * x_16 + 8.5 x_37 * x_17 + 15.5 x_37 * x_18 + 13.0 x_37 * x_20 + 24.5 x_37 * x_22 - 6.5 x_37 * x_23 + 21.5 x_37 * x_24 + 7.5 x_37 * x_25 - 14.0 x_37 * x_30 + 15.0 x_37 * x_32 + 8.0 x_37 * x_40 - 24.0 x_38 * x_2 + 14.5 x_38 * x_3 - 6.0 x_38 * x_4 + 23.0 x_38 * x_5 - 8.5 x_38 * x_7 + 4.0 x_38 * x_10 - 3.0 x_38 * x_13 - 5.5 x_38 * x_14 - 5.5 x_38 * x_15 - 10.5 x_38 * x_16 - 12.0 x_38 * x_18 + 22.0 x_38 * x_19 - 12.5 x_38 * x_21 - 24.0 x_38 * x_22 - 19.5 x_38 * x_23 + 18.0 x_38 * x_27 - 7.0 x_38 * x_29 + 19.5 x_38 * x_30 - 12.0 x_38 * x_31 - 21.0 x_38 * x_32 - 24.5 x_38 * x_33 + 19.5 x_38 * x_39 + 12.0 x_39 * x_2 + 17.0 x_39 * x_4 - 7.5 x_39 * x_7 + 1.5 x_39 * x_10 - 5.0 x_39 * x_12 - 21.5 x_39 * x_13 - 20.0 x_39 * x_14 + 5.0 x_39 * x_15 - 10.0 x_39 * x_20 + 11.5 x_39 * x_21 - 8.0 x_39 * x_22 + 16.5 x_39 * x_25 - 18.0 x_39 * x_26 - 7.5 x_39 * x_27 - 3.0 x_39 * x_30 + 17.0 x_39 * x_31 + 5.5 x_39 * x_32 + 5.0 x_39 * x_35 + 18.5 x_39 * x_36 + 19.5 x_39 * x_38 - 18.5 x_39 * x_39 + 8.5 x_40 * x_1 + 22.5 x_40 * x_2 + 20.0 x_40 * x_3 + 1.0 x_40 * x_4 + 3.0 x_40 * x_5 - 23.0 x_40 * x_7 + 9.0 x_40 * x_10 + 8.0 x_40 * x_13 + 11.5 x_40 * x_14 + 8.5 x_40 * x_15 - 3.5 x_40 * x_17 - 12.5 x_40 * x_18 + 13.0 x_40 * x_19 + 1.5 x_40 * x_20 + 17.5 x_40 * x_21 + 12.0 x_40 * x_22 - 20.0 x_40 * x_23 + 3.0 x_40 * x_25 - 15.5 x_40 * x_26 + 13.5 x_40 * x_27 + 8.0 x_40 * x_37 - 20.5 x_40 * x_40 ] + 0.0 x_1 + 15.0 x_2 + 0.0 x_3 - 19.0 x_4 - 49.0 x_5 - 10.0 x_6 + 0.0 x_7 + 0.0 x_8 + 0.0 x_9 + 0.0 x_10 + 0.0 x_11 + 0.0 x_12 + 0.0 x_13 + 11.0 x_14 - 31.0 x_15 - 36.0 x_16 + 0.0 x_17 + 0.0 x_18 + 0.0 x_19 + 0.0 x_20 + 0.0 x_21 + 0.0 x_22 + 11.0 x_23 + 0.0 x_24 - 35.0 x_25 + 6.0 x_26 + 0.0 x_27 - 34.0 x_28 + 0.0 x_29 - 3.0 x_30 - 22.0 x_31 + 0.0 x_32 + 29.0 x_33 + 0.0 x_34 + 0.0 x_35 - 9.0 x_36 + 29.0 x_37 - 40.0 x_38 - 14.0 x_39 - 25.0 x_40

Subject To
 e2: [  x_1 * x_4 ] = 0.0
 e3: [  x_1 * x_16 ] = 0.0
 e4: [  x_1 * x_31 ] = 0.0
 e5: [  x_2 * x_6 ] = 0.0
 e6: [  x_2 * x_9 ] = 0.0
 e7: [  x_2 * x_40 ] = 0.0
 e8: [  x_3 * x_11 ] = 0.0
 e9: [  x_3 * x_16 ] = 0.0
 e10: [  x_3 * x_19 ] = 0.0
 e11: [  x_3 * x_29 ] = 0.0
 e12: [  x_3 * x_37 ] = 0.0
 e13: [  x_4 * x_28 ] = 0.0
 e14: [  x_4 * x_33 ] = 0.0
 e15: [  x_4 * x_39 ] = 0.0
 e16: [  x_5 * x_3 ] = 0.0
 e17: [  x_5 * x_11 ] = 0.0
 e18: [  x_5 * x_12 ] = 0.0
 e19: [  x_5 * x_15 ] = 0.0
 e20: [  x_5 * x_23 ] = 0.0
 e21: [  x_5 * x_34 ] = 0.0
 e22: [  x_5 * x_35 ] = 0.0
 e23: [  x_6 * x_3 ] = 0.0
 e24: [  x_6 * x_6 ] = 0.0
 e25: [  x_6 * x_8 ] = 0.0
 e26: [  x_6 * x_15 ] = 0.0
 e27: [  x_7 * x_10 ] = 0.0
 e28: [  x_7 * x_14 ] = 0.0
 e29: [  x_7 * x_17 ] = 0.0
 e30: [  x_7 * x_27 ] = 0.0
 e31: [  x_7 * x_31 ] = 0.0
 e32: [  x_8 * x_2 ] = 0.0
 e33: [  x_8 * x_3 ] = 0.0
 e34: [  x_8 * x_9 ] = 0.0
 e35: [  x_8 * x_25 ] = 0.0
 e36: [  x_8 * x_37 ] = 0.0
 e37: [  x_9 * x_2 ] = 0.0
 e38: [  x_9 * x_6 ] = 0.0
 e39: [  x_9 * x_10 ] = 0.0
 e40: [  x_9 * x_28 ] = 0.0
 e41: [  x_9 * x_30 ] = 0.0
 e42: [  x_10 * x_1 ] = 0.0
 e43: [  x_10 * x_5 ] = 0.0
 e44: [  x_10 * x_9 ] = 0.0
 e45: [  x_10 * x_15 ] = 0.0
 e46: [  x_10 * x_16 ] = 0.0
 e47: [  x_10 * x_18 ] = 0.0
 e48: [  x_10 * x_39 ] = 0.0
 e49: [  x_11 * x_5 ] = 0.0
 e50: [  x_11 * x_12 ] = 0.0
 e51: [  x_11 * x_18 ] = 0.0
 e52: [  x_11 * x_20 ] = 0.0
 e53: [  x_11 * x_30 ] = 0.0
 e54: [  x_11 * x_36 ] = 0.0
 e55: [  x_12 * x_11 ] = 0.0
 e56: [  x_12 * x_31 ] = 0.0
 e57: [  x_12 * x_35 ] = 0.0
 e58: [  x_12 * x_36 ] = 0.0
 e59: [  x_12 * x_37 ] = 0.0
 e60: [  x_13 * x_10 ] = 0.0
 e61: [  x_13 * x_20 ] = 0.0
 e62: [  x_13 * x_21 ] = 0.0
 e63: [  x_13 * x_38 ] = 0.0
 e64: [  x_13 * x_39 ] = 0.0
 e65: [  x_14 * x_3 ] = 0.0
 e66: [  x_14 * x_7 ] = 0.0
 e67: [  x_14 * x_12 ] = 0.0
 e68: [  x_14 * x_27 ] = 0.0
 e69: [  x_14 * x_31 ] = 0.0
 e70: [  x_14 * x_34 ] = 0.0
 e71: [  x_14 * x_35 ] = 0.0
 e72: [  x_14 * x_39 ] = 0.0
 e73: [  x_15 * x_3 ] = 0.0
 e74: [  x_15 * x_5 ] = 0.0
 e75: [  x_15 * x_13 ] = 0.0
 e76: [  x_15 * x_18 ] = 0.0
 e77: [  x_15 * x_20 ] = 0.0
 e78: [  x_15 * x_22 ] = 0.0
 e79: [  x_15 * x_23 ] = 0.0
 e80: [  x_15 * x_35 ] = 0.0
 e81: [  x_16 * x_3 ] = 0.0
 e82: [  x_16 * x_4 ] = 0.0
 e83: [  x_16 * x_5 ] = 0.0
 e84: [  x_16 * x_10 ] = 0.0
 e85: [  x_17 * x_12 ] = 0.0
 e86: [  x_17 * x_23 ] = 0.0
 e87: [  x_17 * x_30 ] = 0.0
 e88: [  x_17 * x_36 ] = 0.0
 e89: [  x_17 * x_37 ] = 0.0
 e90: [  x_18 * x_3 ] = 0.0
 e91: [  x_18 * x_38 ] = 0.0
 e92: [  x_19 * x_3 ] = 0.0
 e93: [  x_19 * x_6 ] = 0.0
 e94: [  x_19 * x_25 ] = 0.0
 e95: [  x_19 * x_28 ] = 0.0
 e96: [  x_19 * x_33 ] = 0.0
 e97: [  x_19 * x_35 ] = 0.0
 e98: [  x_19 * x_38 ] = 0.0
 e99: [  x_20 * x_4 ] = 0.0
 e100: [  x_20 * x_28 ] = 0.0
 e101: [  x_21 * x_2 ] = 0.0
 e102: [  x_21 * x_3 ] = 0.0
 e103: [  x_21 * x_8 ] = 0.0
 e104: [  x_21 * x_15 ] = 0.0
 e105: [  x_21 * x_22 ] = 0.0
 e106: [  x_21 * x_32 ] = 0.0
 e107: [  x_21 * x_33 ] = 0.0
 e108: [  x_21 * x_39 ] = 0.0
 e109: [  x_22 * x_9 ] = 0.0
 e110: [  x_22 * x_10 ] = 0.0
 e111: [  x_22 * x_21 ] = 0.0
 e112: [  x_22 * x_30 ] = 0.0
 e113: [  x_22 * x_35 ] = 0.0
 e114: [  x_22 * x_39 ] = 0.0
 e115: [  x_22 * x_40 ] = 0.0
 e116: [  x_23 * x_2 ] = 0.0
 e117: [  x_23 * x_15 ] = 0.0
 e118: [  x_23 * x_17 ] = 0.0
 e119: [  x_23 * x_23 ] = 0.0
 e120: [  x_23 * x_28 ] = 0.0
 e121: [  x_23 * x_36 ] = 0.0
 e122: [  x_24 * x_2 ] = 0.0
 e123: [  x_24 * x_6 ] = 0.0
 e124: [  x_24 * x_16 ] = 0.0
 e125: [  x_24 * x_31 ] = 0.0
 e126: [  x_25 * x_8 ] = 0.0
 e127: [  x_25 * x_24 ] = 0.0
 e128: [  x_26 * x_7 ] = 0.0
 e129: [  x_26 * x_21 ] = 0.0
 e130: [  x_26 * x_35 ] = 0.0
 e131: [  x_27 * x_8 ] = 0.0
 e132: [  x_27 * x_36 ] = 0.0
 e133: [  x_28 * x_11 ] = 0.0
 e134: [  x_29 * x_3 ] = 0.0
 e135: [  x_29 * x_27 ] = 0.0
 e136: [  x_29 * x_36 ] = 0.0
 e137: [  x_30 * x_1 ] = 0.0
 e138: [  x_30 * x_17 ] = 0.0
 e139: [  x_30 * x_35 ] = 0.0
 e140: [  x_31 * x_2 ] = 0.0
 e141: [  x_31 * x_9 ] = 0.0
 e142: [  x_31 * x_15 ] = 0.0
 e143: [  x_31 * x_24 ] = 0.0
 e144: [  x_31 * x_27 ] = 0.0
 e145: [  x_31 * x_30 ] = 0.0
 e146: [  x_32 * x_17 ] = 0.0
 e147: [  x_32 * x_28 ] = 0.0
 e148: [  x_32 * x_30 ] = 0.0
 e149: [  x_32 * x_37 ] = 0.0
 e150: [  x_32 * x_38 ] = 0.0
 e151: [  x_33 * x_18 ] = 0.0
 e152: [  x_33 * x_19 ] = 0.0
 e153: [  x_33 * x_30 ] = 0.0
 e154: [  x_33 * x_34 ] = 0.0
 e155: [  x_33 * x_38 ] = 0.0
 e156: [  x_34 * x_5 ] = 0.0
 e157: [  x_34 * x_9 ] = 0.0
 e158: [  x_34 * x_10 ] = 0.0
 e159: [  x_34 * x_14 ] = 0.0
 e160: [  x_34 * x_19 ] = 0.0
 e161: [  x_34 * x_29 ] = 0.0
 e162: [  x_34 * x_33 ] = 0.0
 e163: [  x_35 * x_4 ] = 0.0
 e164: [  x_35 * x_21 ] = 0.0
 e165: [  x_35 * x_22 ] = 0.0
 e166: [  x_35 * x_26 ] = 0.0
 e167: [  x_35 * x_34 ] = 0.0
 e168: [  x_36 * x_6 ] = 0.0
 e169: [  x_36 * x_12 ] = 0.0
 e170: [  x_36 * x_23 ] = 0.0
 e171: [  x_36 * x_24 ] = 0.0
 e172: [  x_36 * x_29 ] = 0.0
 e173: [  x_36 * x_39 ] = 0.0
 e174: [  x_37 * x_3 ] = 0.0
 e175: [  x_37 * x_8 ] = 0.0
 e176: [  x_37 * x_12 ] = 0.0
 e177: [  x_37 * x_17 ] = 0.0
 e178: [  x_37 * x_18 ] = 0.0
 e179: [  x_37 * x_20 ] = 0.0
 e180: [  x_37 * x_30 ] = 0.0
 e181: [  x_38 * x_7 ] = 0.0
 e182: [  x_38 * x_16 ] = 0.0
 e183: [  x_38 * x_19 ] = 0.0
 e184: [  x_38 * x_21 ] = 0.0
 e185: [  x_38 * x_22 ] = 0.0
 e186: [  x_38 * x_32 ] = 0.0
 e187: [  x_39 * x_2 ] = 0.0
 e188: [  x_39 * x_4 ] = 0.0
 e189: [  x_39 * x_14 ] = 0.0
 e190: [  x_39 * x_15 ] = 0.0
 e191: [  x_39 * x_27 ] = 0.0
 e192: [  x_39 * x_30 ] = 0.0
 e193: [  x_39 * x_31 ] = 0.0
 e194: [  x_39 * x_32 ] = 0.0
 e195: [  x_39 * x_35 ] = 0.0
 e196: [  x_39 * x_39 ] = 0.0
 e197: [  x_40 * x_10 ] = 0.0
 e198: [  x_40 * x_15 ] = 0.0
 e199: [  x_40 * x_19 ] = 0.0
 e200: [  x_40 * x_22 ] = 0.0
 e201: [  x_40 * x_26 ] = 0.0
 e202: [  x_40 * x_27 ] = 0.0
 e203: [  x_40 * x_37 ] = 0.0

Bounds
 x_1 <= 1.0
 x_2 <= 1.0
 x_3 <= 1.0
 x_4 <= 1.0
 x_5 <= 1.0
 x_6 <= 1.0
 x_7 <= 1.0
 x_8 <= 1.0
 x_9 <= 1.0
 x_10 <= 1.0
 x_11 <= 1.0
 x_12 <= 1.0
 x_13 <= 1.0
 x_14 <= 1.0
 x_15 <= 1.0
 x_16 <= 1.0
 x_17 <= 1.0
 x_18 <= 1.0
 x_19 <= 1.0
 x_20 <= 1.0
 x_21 <= 1.0
 x_22 <= 1.0
 x_23 <= 1.0
 x_24 <= 1.0
 x_25 <= 1.0
 x_26 <= 1.0
 x_27 <= 1.0
 x_28 <= 1.0
 x_29 <= 1.0
 x_30 <= 1.0
 x_31 <= 1.0
 x_32 <= 1.0
 x_33 <= 1.0
 x_34 <= 1.0
 x_35 <= 1.0
 x_36 <= 1.0
 x_37 <= 1.0
 x_38 <= 1.0
 x_39 <= 1.0
 x_40 <= 1.0

End